;; Mutation-Based Equivalence Benchmark
;; Source:     AutomatArk / instance01252.smt2
;; Mutations:  intersect_no_spaces, intersect_no_dot_dot
;; Status:     sat
;;
;; Original regex vs mutated regex
;; Equivalence check: unsat ⟺ L(R1) = L(R2)

(set-info :smt-lib-version 2.6)
(set-info :category "mutation")
(set-info :status sat)
(set-logic QF_S)


;; R1: original
;; R2: mutated (intersect_no_spaces, intersect_no_dot_dot)
(assert
  (not
    (=
      (re.++ (re.union (re.++ (re.union (re.++ (re.union (re.++ (str.to_re "0") (re.range "1" "9")) (re.++ (str.to_re "1") (re.range "0" "9")) (re.++ (str.to_re "2") (re.range "0" "8"))) (str.to_re "-") (re.union (re.++ (str.to_re "0") (re.range "1" "9")) (re.++ (str.to_re "1") (re.range "0" "2")))) (re.++ (str.to_re "31-") (re.union (re.++ (str.to_re "0") (re.union (str.to_re "1") (str.to_re "3") (str.to_re "5") (str.to_re "7") (str.to_re "8"))) (re.++ (str.to_re "1") (re.union (str.to_re "0") (str.to_re "2"))))) (re.++ (re.union (str.to_re "29") (str.to_re "30")) (str.to_re "-") (re.union (re.++ (str.to_re "0") (re.union (str.to_re "1") (str.to_re ",") (re.range "3" "9"))) (re.++ (str.to_re "1") (re.range "0" "2"))))) (str.to_re "-20") (re.range "0" "9") (re.range "0" "9")) (re.++ (str.to_re "29-02-20") (re.union (re.++ (re.union (str.to_re "0") (str.to_re "2") (str.to_re "4") (str.to_re "6") (str.to_re "8")) (re.union (str.to_re "0") (str.to_re "4") (str.to_re "8"))) (re.++ (re.union (str.to_re "1") (str.to_re "3") (str.to_re "5") (str.to_re "7") (str.to_re "9")) (re.union (str.to_re "2") (str.to_re "6")))))) (str.to_re "\u{a}"))
      (re.++ (re.union (re.++ (re.union (re.++ (re.union (re.++ (str.to_re "0") (re.range "1" "9")) (re.++ (str.to_re "1") (re.range "0" "9")) (re.++ (str.to_re "2") (re.range "0" "8"))) (str.to_re "-") (re.inter (re.union (re.++ (str.to_re "0") (re.range "1" "9")) (re.++ (str.to_re "1") (re.range "0" "2"))) (re.comp (re.++ re.all (str.to_re "..") re.all)))) (re.inter (re.++ (str.to_re "31-") (re.union (re.++ (str.to_re "0") (re.union (str.to_re "1") (str.to_re "3") (str.to_re "5") (str.to_re "7") (str.to_re "8"))) (re.++ (str.to_re "1") (re.union (str.to_re "0") (str.to_re "2"))))) (re.comp (re.++ re.all (str.to_re " ") re.all))) (re.++ (re.union (str.to_re "29") (str.to_re "30")) (str.to_re "-") (re.union (re.++ (str.to_re "0") (re.union (str.to_re "1") (str.to_re ",") (re.range "3" "9"))) (re.++ (str.to_re "1") (re.range "0" "2"))))) (str.to_re "-20") (re.range "0" "9") (re.range "0" "9")) (re.++ (str.to_re "29-02-20") (re.union (re.++ (re.union (str.to_re "0") (str.to_re "2") (str.to_re "4") (str.to_re "6") (str.to_re "8")) (re.union (str.to_re "0") (str.to_re "4") (str.to_re "8"))) (re.++ (re.union (str.to_re "1") (str.to_re "3") (str.to_re "5") (str.to_re "7") (str.to_re "9")) (re.union (str.to_re "2") (str.to_re "6")))))) (str.to_re "\u{a}")))))

(check-sat)
(exit)
